; benchmark generated from python API
(set-info :status unknown)
(declare-fun syscall_stub_newfstatat_83_64 () (_ BitVec 64))
(declare-fun mem_c0080014_89_32 () (_ BitVec 32))
(declare-fun mem_c0080018_88_32 () (_ BitVec 32))
(declare-fun mem_c0080024_86_32 () (_ BitVec 32))
(declare-fun mem_c0080020_87_32 () (_ BitVec 32))
(declare-fun mem_c0080010_84_32 () (_ BitVec 32))
(declare-fun mem_c0080008_85_32 () (_ BitVec 32))
(declare-fun mem_c0000f45_79_992 () (_ BitVec 992))
(declare-fun mem_c0001010_98_32 () (_ BitVec 32))
(declare-fun mem_f000000000000000_162_128 () (_ BitVec 128))
(declare-fun mem_f000000000000010_251_128 () (_ BitVec 128))
(declare-fun mem_f000000000000020_296_128 () (_ BitVec 128))
(declare-fun mem_f000000000000030_348_128 () (_ BitVec 128))
(assert
 (let ((?x47 ((_ extract 31 0) syscall_stub_newfstatat_83_64)))
 (bvule ?x47 (_ bv4294963200 32))))
(assert
 (let ((?x123 (bvadd mem_c0080018_88_32 mem_c0080014_89_32)))
 (let ((?x129 (concat (_ bv0 32) ?x123)))
 (let ((?x1176807 (concat (concat (_ bv0 26) mem_c0080024_86_32) (_ bv0 1))))
 (let ((?x201 (concat (_ bv0 27) mem_c0080024_86_32)))
 (let ((?x1165299 (bvadd ?x201 ?x1176807)))
 (let ((?x1176556 (concat ?x1165299 (_ bv0 3))))
 (let ((?x1170187 (concat (concat (_ bv0 29) mem_c0080024_86_32) (_ bv0 1))))
 (let ((?x190 (concat (_ bv0 30) mem_c0080024_86_32)))
 (let ((?x1170008 (bvadd (bvadd ?x190 ?x1170187) ?x1176556)))
 (let ((?x1173198 (concat ?x1170008 (_ bv0 2))))
 (let ((?x168 (concat (_ bv0 32) mem_c0080020_87_32)))
 (let ((?x1171863 (bvadd ?x168 ?x1173198)))
 (let ((?x1176464 (concat (concat (_ bv0 29) mem_c0080010_84_32) (_ bv0 1))))
 (let ((?x161 (concat (_ bv0 30) mem_c0080010_84_32)))
 (let ((?x1169634 (bvadd ?x161 ?x1176464)))
 (let ((?x1164079 (concat ?x1169634 (_ bv0 2))))
 (let ((?x143 (concat (_ bv0 32) mem_c0080008_85_32)))
 (let ((?x1171664 (bvadd ?x143 ?x1164079)))
 (let (($x1175785 (bvsle ?x1171863 ?x1171664)))
 (let ((?x1174269 (ite $x1175785 ?x1171664 ?x1171863)))
 (let (($x1176297 (bvsle ?x129 ?x1174269)))
 (let ((?x1170170 (ite $x1176297 ?x1174269 ?x129)))
 (let (($x1171836 (= (_ bv0 64) ?x1170170)))
 (not $x1171836)))))))))))))))))))))))))
(assert
 (let ((?x2427 ((_ extract 775 768) mem_c0000f45_79_992)))
 (let ((?x2419 ((_ extract 767 760) mem_c0000f45_79_992)))
 (let ((?x2429 ((_ extract 759 752) mem_c0000f45_79_992)))
 (let ((?x2417 ((_ extract 751 744) mem_c0000f45_79_992)))
 (let ((?x2410 ((_ extract 743 736) mem_c0000f45_79_992)))
 (let ((?x2411 ((_ extract 735 728) mem_c0000f45_79_992)))
 (let ((?x4124 (concat (concat ((_ extract 719 712) mem_c0000f45_79_992) ((_ extract 727 720) mem_c0000f45_79_992)) ?x2411)))
 (let ((?x3823 (concat (concat (concat (concat (concat ?x4124 ?x2410) ?x2417) ?x2429) ?x2419) ?x2427)))
 (let ((?x126982 (bvadd (_ bv1152921504606846976 64) ?x3823)))
 (let ((?x201504 ((_ extract 63 63) ?x126982)))
 (let (($x194554 (= (_ bv1 1) ?x201504)))
 (not $x194554)))))))))))))
(assert
 (let ((?x2189 ((_ extract 900 900) mem_c0000f45_79_992)))
 (= (_ bv0 1) ?x2189)))
(assert
 (let ((?x2374 ((_ extract 839 832) mem_c0000f45_79_992)))
 (= (_ bv0 8) ?x2374)))
(assert
 (let ((?x6423 ((_ extract 835 832) mem_c0000f45_79_992)))
 (let ((?x6432 (concat (_ bv0 60) ?x6423)))
 (let ((?x2427 ((_ extract 775 768) mem_c0000f45_79_992)))
 (let ((?x2419 ((_ extract 767 760) mem_c0000f45_79_992)))
 (let ((?x2429 ((_ extract 759 752) mem_c0000f45_79_992)))
 (let ((?x2417 ((_ extract 751 744) mem_c0000f45_79_992)))
 (let ((?x2410 ((_ extract 743 736) mem_c0000f45_79_992)))
 (let ((?x2411 ((_ extract 735 728) mem_c0000f45_79_992)))
 (let ((?x4124 (concat (concat ((_ extract 719 712) mem_c0000f45_79_992) ((_ extract 727 720) mem_c0000f45_79_992)) ?x2411)))
 (let ((?x3823 (concat (concat (concat (concat (concat ?x4124 ?x2410) ?x2417) ?x2429) ?x2419) ?x2427)))
 (let ((?x126982 (bvadd (_ bv1152921504606846976 64) ?x3823)))
 (let ((?x3615 ((_ extract 824 824) mem_c0000f45_79_992)))
 (let ((?x50579 (concat ?x3615 (_ bv0 8))))
 (let ((?x49744 (bvmul (_ bv511 9) ?x50579)))
 (let ((?x4203 ((_ extract 760 760) mem_c0000f45_79_992)))
 (let ((?x3607 (concat ?x4203 ?x2427)))
 (let ((?x64841 (bvadd ?x3607 ?x49744)))
 (let (($x60065 (bvule ?x64841 (_ bv399 9))))
 (let ((?x126602 ((_ extract 63 9) ?x126982)))
 (let (($x194145 (= (_ bv0 55) ?x126602)))
 (let (($x205206 (and $x194145 $x60065)))
 (let ((?x195688 (ite $x205206 ?x126982 (_ bv399 64))))
 (let ((?x193904 (bvadd (bvadd (_ bv18446744073709551600 64) ?x195688) ?x6432)))
 (let ((?x125196 ((_ extract 63 7) ?x193904)))
 (= (_ bv0 57) ?x125196))))))))))))))))))))))))))
(assert
 (let ((?x6423 ((_ extract 835 832) mem_c0000f45_79_992)))
 (let ((?x15138 (concat (_ bv0 28) ?x6423)))
 (let ((?x2427 ((_ extract 775 768) mem_c0000f45_79_992)))
 (let ((?x2419 ((_ extract 767 760) mem_c0000f45_79_992)))
 (let ((?x21977 (concat (concat ((_ extract 751 744) mem_c0000f45_79_992) ((_ extract 759 752) mem_c0000f45_79_992)) ?x2419)))
 (let ((?x22501 (concat ?x21977 ?x2427)))
 (let ((?x3615 ((_ extract 824 824) mem_c0000f45_79_992)))
 (let ((?x50579 (concat ?x3615 (_ bv0 8))))
 (let ((?x49744 (bvmul (_ bv511 9) ?x50579)))
 (let ((?x4203 ((_ extract 760 760) mem_c0000f45_79_992)))
 (let ((?x3607 (concat ?x4203 ?x2427)))
 (let ((?x64841 (bvadd ?x3607 ?x49744)))
 (let (($x60065 (bvule ?x64841 (_ bv399 9))))
 (let ((?x2429 ((_ extract 759 752) mem_c0000f45_79_992)))
 (let ((?x2417 ((_ extract 751 744) mem_c0000f45_79_992)))
 (let ((?x2410 ((_ extract 743 736) mem_c0000f45_79_992)))
 (let ((?x2411 ((_ extract 735 728) mem_c0000f45_79_992)))
 (let ((?x4124 (concat (concat ((_ extract 719 712) mem_c0000f45_79_992) ((_ extract 727 720) mem_c0000f45_79_992)) ?x2411)))
 (let ((?x3823 (concat (concat (concat (concat (concat ?x4124 ?x2410) ?x2417) ?x2429) ?x2419) ?x2427)))
 (let ((?x126982 (bvadd (_ bv1152921504606846976 64) ?x3823)))
 (let ((?x126602 ((_ extract 63 9) ?x126982)))
 (let (($x194145 (= (_ bv0 55) ?x126602)))
 (let (($x205206 (and $x194145 $x60065)))
 (let ((?x208569 (ite $x205206 ?x22501 (_ bv399 32))))
 (let ((?x209732 (bvadd (bvadd (_ bv4294967248 32) ?x208569) ?x15138)))
 (let ((?x127553 ((_ extract 31 31) ?x209732)))
 (let ((?x6432 (concat (_ bv0 60) ?x6423)))
 (let ((?x119671 (bvadd (bvadd (_ bv18446744073709551536 64) (ite $x205206 ?x126982 (_ bv399 64))) ?x6432)))
 (let ((?x207739 ((_ extract 31 31) ?x119671)))
 (let (($x120996 (= ?x207739 ?x127553)))
 (let (($x127948 (= (_ bv1 1) ?x207739)))
 (let (($x192367 (or $x127948 $x120996)))
 (let ((?x121402 (ite $x192367 (_ bv1 1) (_ bv0 1))))
 (let (($x127892 (= ?x127553 ?x121402)))
 (not $x127892))))))))))))))))))))))))))))))))))))
(assert
 (let ((?x2364 ((_ extract 831 824) mem_c0000f45_79_992)))
 (= (_ bv0 8) ?x2364)))
(assert
 (let ((?x2349 ((_ extract 823 816) mem_c0000f45_79_992)))
 (= (_ bv0 8) ?x2349)))
(assert
 (let ((?x2357 ((_ extract 815 808) mem_c0000f45_79_992)))
 (= (_ bv0 8) ?x2357)))
(assert
 (let ((?x2362 ((_ extract 807 800) mem_c0000f45_79_992)))
 (= (_ bv0 8) ?x2362)))
(assert
 (let ((?x2363 ((_ extract 799 792) mem_c0000f45_79_992)))
 (= (_ bv0 8) ?x2363)))
(assert
 (let ((?x2346 ((_ extract 791 784) mem_c0000f45_79_992)))
 (= (_ bv0 8) ?x2346)))
(assert
 (let ((?x2345 ((_ extract 783 776) mem_c0000f45_79_992)))
 (= (_ bv240 8) ?x2345)))
(assert
 (let ((?x6423 ((_ extract 835 832) mem_c0000f45_79_992)))
 (let ((?x12827 (concat (_ bv0 3) ?x6423)))
 (let ((?x14167 ((_ extract 838 832) mem_c0000f45_79_992)))
 (let ((?x14394 (bvmul (_ bv127 7) ?x14167)))
 (let ((?x13987 ((_ extract 774 768) mem_c0000f45_79_992)))
 (let ((?x14007 (bvadd ?x13987 ?x14394)))
 (let ((?x3615 ((_ extract 824 824) mem_c0000f45_79_992)))
 (let ((?x50579 (concat ?x3615 (_ bv0 8))))
 (let ((?x49744 (bvmul (_ bv511 9) ?x50579)))
 (let ((?x2427 ((_ extract 775 768) mem_c0000f45_79_992)))
 (let ((?x4203 ((_ extract 760 760) mem_c0000f45_79_992)))
 (let ((?x3607 (concat ?x4203 ?x2427)))
 (let ((?x64841 (bvadd ?x3607 ?x49744)))
 (let (($x60065 (bvule ?x64841 (_ bv399 9))))
 (let ((?x2419 ((_ extract 767 760) mem_c0000f45_79_992)))
 (let ((?x2429 ((_ extract 759 752) mem_c0000f45_79_992)))
 (let ((?x2417 ((_ extract 751 744) mem_c0000f45_79_992)))
 (let ((?x2410 ((_ extract 743 736) mem_c0000f45_79_992)))
 (let ((?x2411 ((_ extract 735 728) mem_c0000f45_79_992)))
 (let ((?x4124 (concat (concat ((_ extract 719 712) mem_c0000f45_79_992) ((_ extract 727 720) mem_c0000f45_79_992)) ?x2411)))
 (let ((?x3823 (concat (concat (concat (concat (concat ?x4124 ?x2410) ?x2417) ?x2429) ?x2419) ?x2427)))
 (let ((?x126982 (bvadd (_ bv1152921504606846976 64) ?x3823)))
 (let ((?x126602 ((_ extract 63 9) ?x126982)))
 (let (($x194145 (= (_ bv0 55) ?x126602)))
 (let (($x205206 (and $x194145 $x60065)))
 (let ((?x119840 (ite $x205206 ?x14007 (_ bv15 7))))
 (let ((?x198064 (bvadd (bvadd (_ bv112 7) ?x119840) ?x12827)))
 (bvule ?x198064 (_ bv64 7))))))))))))))))))))))))))))))
(assert
 (let ((?x6423 ((_ extract 835 832) mem_c0000f45_79_992)))
 (let ((?x15138 (concat (_ bv0 28) ?x6423)))
 (let ((?x22487 (bvmul (_ bv4294967295 32) ?x15138)))
 (let ((?x22274 (bvadd (_ bv48 32) ?x22487)))
 (let ((?x2427 ((_ extract 775 768) mem_c0000f45_79_992)))
 (let ((?x2419 ((_ extract 767 760) mem_c0000f45_79_992)))
 (let ((?x21977 (concat (concat ((_ extract 751 744) mem_c0000f45_79_992) ((_ extract 759 752) mem_c0000f45_79_992)) ?x2419)))
 (let ((?x22501 (concat ?x21977 ?x2427)))
 (let ((?x3615 ((_ extract 824 824) mem_c0000f45_79_992)))
 (let ((?x50579 (concat ?x3615 (_ bv0 8))))
 (let ((?x49744 (bvmul (_ bv511 9) ?x50579)))
 (let ((?x4203 ((_ extract 760 760) mem_c0000f45_79_992)))
 (let ((?x3607 (concat ?x4203 ?x2427)))
 (let ((?x64841 (bvadd ?x3607 ?x49744)))
 (let (($x60065 (bvule ?x64841 (_ bv399 9))))
 (let ((?x2429 ((_ extract 759 752) mem_c0000f45_79_992)))
 (let ((?x2417 ((_ extract 751 744) mem_c0000f45_79_992)))
 (let ((?x2410 ((_ extract 743 736) mem_c0000f45_79_992)))
 (let ((?x2411 ((_ extract 735 728) mem_c0000f45_79_992)))
 (let ((?x4124 (concat (concat ((_ extract 719 712) mem_c0000f45_79_992) ((_ extract 727 720) mem_c0000f45_79_992)) ?x2411)))
 (let ((?x3823 (concat (concat (concat (concat (concat ?x4124 ?x2410) ?x2417) ?x2429) ?x2419) ?x2427)))
 (let ((?x126982 (bvadd (_ bv1152921504606846976 64) ?x3823)))
 (let ((?x126602 ((_ extract 63 9) ?x126982)))
 (let (($x194145 (= (_ bv0 55) ?x126602)))
 (let (($x205206 (and $x194145 $x60065)))
 (let ((?x208569 (ite $x205206 ?x22501 (_ bv399 32))))
 (let (($x126615 (= ?x208569 ?x22274)))
 (not $x126615)))))))))))))))))))))))))))))
(assert
 (let (($x2293 (= (_ bv0 32) mem_c0001010_98_32)))
 (not $x2293)))
(assert
 (let ((?x83417 ((_ extract 15 8) mem_f000000000000000_162_128)))
 (let (($x145 (= (_ bv10 8) ?x83417)))
 (not $x145))))
(assert
 (let ((?x175 ((_ extract 7 0) mem_f000000000000000_162_128)))
 (let (($x88322 (= (_ bv10 8) ?x175)))
 (not $x88322))))
(assert
 (let ((?x178 ((_ extract 23 16) mem_f000000000000000_162_128)))
 (let (($x83401 (= (_ bv10 8) ?x178)))
 (not $x83401))))
(assert
 (let ((?x83595 ((_ extract 31 24) mem_f000000000000000_162_128)))
 (let (($x150 (= (_ bv10 8) ?x83595)))
 (not $x150))))
(assert
 (let ((?x151 ((_ extract 39 32) mem_f000000000000000_162_128)))
 (let (($x83644 (= (_ bv10 8) ?x151)))
 (not $x83644))))
(assert
 (let ((?x83628 ((_ extract 47 40) mem_f000000000000000_162_128)))
 (let (($x6066 (= (_ bv10 8) ?x83628)))
 (not $x6066))))
(assert
 (let ((?x86873 ((_ extract 55 48) mem_f000000000000000_162_128)))
 (let (($x91886 (= (_ bv10 8) ?x86873)))
 (not $x91886))))
(assert
 (let ((?x86361 ((_ extract 63 56) mem_f000000000000000_162_128)))
 (let (($x1470 (= (_ bv10 8) ?x86361)))
 (not $x1470))))
(assert
 (let ((?x87962 ((_ extract 71 64) mem_f000000000000000_162_128)))
 (let (($x83822 (= (_ bv10 8) ?x87962)))
 (not $x83822))))
(assert
 (let ((?x83855 ((_ extract 79 72) mem_f000000000000000_162_128)))
 (let (($x189 (= (_ bv10 8) ?x83855)))
 (not $x189))))
(assert
 (let ((?x215 ((_ extract 87 80) mem_f000000000000000_162_128)))
 (let (($x84105 (= (_ bv10 8) ?x215)))
 (not $x84105))))
(assert
 (let ((?x91031 ((_ extract 95 88) mem_f000000000000000_162_128)))
 (let (($x90753 (= (_ bv10 8) ?x91031)))
 (not $x90753))))
(assert
 (let ((?x92907 ((_ extract 103 96) mem_f000000000000000_162_128)))
 (let (($x85197 (= (_ bv10 8) ?x92907)))
 (not $x85197))))
(assert
 (let ((?x194 ((_ extract 111 104) mem_f000000000000000_162_128)))
 (let (($x89866 (= (_ bv10 8) ?x194)))
 (not $x89866))))
(assert
 (let ((?x89307 ((_ extract 119 112) mem_f000000000000000_162_128)))
 (let (($x84674 (= (_ bv10 8) ?x89307)))
 (not $x84674))))
(assert
 (let ((?x91848 ((_ extract 127 120) mem_f000000000000000_162_128)))
 (let (($x217 (= (_ bv10 8) ?x91848)))
 (not $x217))))
(assert
 (let ((?x207803 ((_ extract 15 8) mem_f000000000000010_251_128)))
 (let (($x207955 (= (_ bv10 8) ?x207803)))
 (not $x207955))))
(assert
 (let ((?x204611 ((_ extract 7 0) mem_f000000000000010_251_128)))
 (let (($x207741 (= (_ bv10 8) ?x204611)))
 (not $x207741))))
(assert
 (let ((?x209352 ((_ extract 23 16) mem_f000000000000010_251_128)))
 (let (($x192946 (= (_ bv10 8) ?x209352)))
 (not $x192946))))
(assert
 (let ((?x199897 ((_ extract 31 24) mem_f000000000000010_251_128)))
 (let (($x208872 (= (_ bv10 8) ?x199897)))
 (not $x208872))))
(assert
 (let ((?x208939 ((_ extract 39 32) mem_f000000000000010_251_128)))
 (let (($x209252 (= (_ bv10 8) ?x208939)))
 (not $x209252))))
(assert
 (let ((?x209293 ((_ extract 47 40) mem_f000000000000010_251_128)))
 (let (($x201212 (= (_ bv10 8) ?x209293)))
 (not $x201212))))
(assert
 (let ((?x197556 ((_ extract 55 48) mem_f000000000000010_251_128)))
 (let (($x208913 (= (_ bv10 8) ?x197556)))
 (not $x208913))))
(assert
 (let ((?x207669 ((_ extract 63 56) mem_f000000000000010_251_128)))
 (let (($x194562 (= (_ bv10 8) ?x207669)))
 (not $x194562))))
(assert
 (let ((?x208674 ((_ extract 71 64) mem_f000000000000010_251_128)))
 (let (($x209566 (= (_ bv10 8) ?x208674)))
 (not $x209566))))
(assert
 (let ((?x209101 ((_ extract 79 72) mem_f000000000000010_251_128)))
 (let (($x206078 (= (_ bv10 8) ?x209101)))
 (not $x206078))))
(assert
 (let ((?x208328 ((_ extract 87 80) mem_f000000000000010_251_128)))
 (let (($x208819 (= (_ bv10 8) ?x208328)))
 (not $x208819))))
(assert
 (let ((?x209186 ((_ extract 95 88) mem_f000000000000010_251_128)))
 (let (($x209599 (= (_ bv10 8) ?x209186)))
 (not $x209599))))
(assert
 (let ((?x209821 ((_ extract 103 96) mem_f000000000000010_251_128)))
 (let (($x208847 (= (_ bv10 8) ?x209821)))
 (not $x208847))))
(assert
 (let ((?x194296 ((_ extract 111 104) mem_f000000000000010_251_128)))
 (let (($x209550 (= (_ bv10 8) ?x194296)))
 (not $x209550))))
(assert
 (let ((?x209428 ((_ extract 119 112) mem_f000000000000010_251_128)))
 (let (($x193890 (= (_ bv10 8) ?x209428)))
 (not $x193890))))
(assert
 (let ((?x199952 ((_ extract 127 120) mem_f000000000000010_251_128)))
 (let (($x200733 (= (_ bv10 8) ?x199952)))
 (not $x200733))))
(assert
 (let ((?x438804 ((_ extract 15 8) mem_f000000000000020_296_128)))
 (let (($x438683 (= (_ bv10 8) ?x438804)))
 (not $x438683))))
(assert
 (let ((?x438742 ((_ extract 7 0) mem_f000000000000020_296_128)))
 (let (($x438342 (= (_ bv10 8) ?x438742)))
 (not $x438342))))
(assert
 (let ((?x438682 ((_ extract 23 16) mem_f000000000000020_296_128)))
 (let (($x438326 (= (_ bv10 8) ?x438682)))
 (not $x438326))))
(assert
 (let ((?x438747 ((_ extract 31 24) mem_f000000000000020_296_128)))
 (let (($x437715 (= (_ bv10 8) ?x438747)))
 (not $x437715))))
(assert
 (let ((?x437872 ((_ extract 39 32) mem_f000000000000020_296_128)))
 (let (($x437876 (= (_ bv10 8) ?x437872)))
 (not $x437876))))
(assert
 (let ((?x439072 ((_ extract 47 40) mem_f000000000000020_296_128)))
 (let (($x437542 (= (_ bv10 8) ?x439072)))
 (not $x437542))))
(assert
 (let ((?x437536 ((_ extract 55 48) mem_f000000000000020_296_128)))
 (let (($x437168 (= (_ bv10 8) ?x437536)))
 (not $x437168))))
(assert
 (let ((?x437882 ((_ extract 63 56) mem_f000000000000020_296_128)))
 (let (($x437049 (= (_ bv10 8) ?x437882)))
 (not $x437049))))
(assert
 (let ((?x438436 ((_ extract 71 64) mem_f000000000000020_296_128)))
 (let (($x438375 (= (_ bv10 8) ?x438436)))
 (not $x438375))))
(assert
 (let ((?x438660 ((_ extract 79 72) mem_f000000000000020_296_128)))
 (let (($x437074 (= (_ bv10 8) ?x438660)))
 (not $x437074))))
(assert
 (let ((?x438359 ((_ extract 87 80) mem_f000000000000020_296_128)))
 (let (($x438626 (= (_ bv10 8) ?x438359)))
 (not $x438626))))
(assert
 (let ((?x437153 ((_ extract 95 88) mem_f000000000000020_296_128)))
 (let (($x438751 (= (_ bv10 8) ?x437153)))
 (not $x438751))))
(assert
 (let ((?x438689 ((_ extract 103 96) mem_f000000000000020_296_128)))
 (let (($x438652 (= (_ bv10 8) ?x438689)))
 (not $x438652))))
(assert
 (let ((?x437001 ((_ extract 111 104) mem_f000000000000020_296_128)))
 (let (($x438680 (= (_ bv10 8) ?x437001)))
 (not $x438680))))
(assert
 (let ((?x438669 ((_ extract 119 112) mem_f000000000000020_296_128)))
 (let (($x438628 (= (_ bv10 8) ?x438669)))
 (not $x438628))))
(assert
 (let ((?x437166 ((_ extract 127 120) mem_f000000000000020_296_128)))
 (let (($x439058 (= (_ bv10 8) ?x437166)))
 (not $x439058))))
(assert
 (let ((?x2374 ((_ extract 839 832) mem_c0000f45_79_992)))
 (let ((?x2364 ((_ extract 831 824) mem_c0000f45_79_992)))
 (let ((?x2349 ((_ extract 823 816) mem_c0000f45_79_992)))
 (let ((?x2357 ((_ extract 815 808) mem_c0000f45_79_992)))
 (let ((?x2362 ((_ extract 807 800) mem_c0000f45_79_992)))
 (let ((?x2363 ((_ extract 799 792) mem_c0000f45_79_992)))
 (let ((?x593 (concat (concat ((_ extract 783 776) mem_c0000f45_79_992) ((_ extract 791 784) mem_c0000f45_79_992)) ?x2363)))
 (let ((?x4215 (concat (concat (concat (concat ?x593 ?x2362) ?x2357) ?x2349) ?x2364)))
 (let ((?x3812 (concat ?x4215 ?x2374)))
 (let ((?x21423 (bvadd (_ bv16 64) ?x3812)))
 (let ((?x22276 ((_ extract 63 4) ?x21423)))
 (let ((?x22354 (concat ?x22276 (_ bv0 4))))
 (let ((?x661530 (bvadd ?x22354 (_ bv32 64))))
 (= (_ bv17293822569102704688 64) ?x661530)))))))))))))))
(assert
 (let ((?x663007 ((_ extract 7 0) mem_f000000000000030_348_128)))
 (let (($x650647 (= (_ bv10 8) ?x663007)))
 (let ((?x657383 (ite $x650647 (_ bv1 1) (_ bv0 1))))
 (let ((?x661869 ((_ extract 15 8) mem_f000000000000030_348_128)))
 (let (($x660920 (= (_ bv10 8) ?x661869)))
 (let ((?x664631 (ite $x660920 (_ bv1 1) (_ bv0 1))))
 (let ((?x661435 ((_ extract 23 16) mem_f000000000000030_348_128)))
 (let (($x656742 (= (_ bv10 8) ?x661435)))
 (let ((?x653271 (ite $x656742 (_ bv1 1) (_ bv0 1))))
 (let ((?x657778 ((_ extract 31 24) mem_f000000000000030_348_128)))
 (let (($x660165 (= (_ bv10 8) ?x657778)))
 (let ((?x664574 (ite $x660165 (_ bv1 1) (_ bv0 1))))
 (let ((?x662070 ((_ extract 39 32) mem_f000000000000030_348_128)))
 (let (($x650519 (= (_ bv10 8) ?x662070)))
 (let ((?x658984 (ite $x650519 (_ bv1 1) (_ bv0 1))))
 (let ((?x662900 ((_ extract 47 40) mem_f000000000000030_348_128)))
 (let (($x661867 (= (_ bv10 8) ?x662900)))
 (let ((?x656219 (ite $x661867 (_ bv1 1) (_ bv0 1))))
 (let ((?x662243 ((_ extract 55 48) mem_f000000000000030_348_128)))
 (let (($x661399 (= (_ bv10 8) ?x662243)))
 (let ((?x664310 (ite $x661399 (_ bv1 1) (_ bv0 1))))
 (let ((?x662083 ((_ extract 63 56) mem_f000000000000030_348_128)))
 (let (($x658844 (= (_ bv10 8) ?x662083)))
 (let ((?x661706 (ite $x658844 (_ bv1 1) (_ bv0 1))))
 (let ((?x656726 ((_ extract 71 64) mem_f000000000000030_348_128)))
 (let (($x648952 (= (_ bv10 8) ?x656726)))
 (let ((?x649333 (ite $x648952 (_ bv1 1) (_ bv0 1))))
 (let ((?x661594 ((_ extract 79 72) mem_f000000000000030_348_128)))
 (let (($x664648 (= (_ bv10 8) ?x661594)))
 (let ((?x617246 (ite $x664648 (_ bv1 1) (_ bv0 1))))
 (let ((?x662786 ((_ extract 87 80) mem_f000000000000030_348_128)))
 (let (($x662270 (= (_ bv10 8) ?x662786)))
 (let ((?x661911 (ite $x662270 (_ bv1 1) (_ bv0 1))))
 (let ((?x650721 ((_ extract 95 88) mem_f000000000000030_348_128)))
 (let (($x660696 (= (_ bv10 8) ?x650721)))
 (let ((?x662590 (ite $x660696 (_ bv1 1) (_ bv0 1))))
 (let ((?x661408 ((_ extract 103 96) mem_f000000000000030_348_128)))
 (let (($x661829 (= (_ bv10 8) ?x661408)))
 (let ((?x663396 (ite $x661829 (_ bv1 1) (_ bv0 1))))
 (let ((?x649261 ((_ extract 111 104) mem_f000000000000030_348_128)))
 (let (($x661348 (= (_ bv10 8) ?x649261)))
 (let ((?x662084 (ite $x661348 (_ bv1 1) (_ bv0 1))))
 (let ((?x655992 ((_ extract 119 112) mem_f000000000000030_348_128)))
 (let (($x662004 (= (_ bv10 8) ?x655992)))
 (let ((?x661739 (ite $x662004 (_ bv1 1) (_ bv0 1))))
 (let ((?x661835 ((_ extract 127 120) mem_f000000000000030_348_128)))
 (let (($x660142 (= (_ bv10 8) ?x661835)))
 (let ((?x649575 (ite $x660142 (_ bv1 1) (_ bv0 1))))
 (let ((?x664680 (concat (concat (concat (concat (concat ?x649575 ?x661739) ?x662084) ?x663396) ?x662590) ?x661911)))
 (let ((?x660496 (concat (concat (concat (concat (concat ?x664680 ?x617246) ?x649333) ?x661706) ?x664310) ?x656219)))
 (let ((?x662303 (concat (concat (concat (concat (concat ?x660496 ?x658984) ?x664574) ?x653271) ?x664631) ?x657383)))
 (= (_ bv0 16) ?x662303)))))))))))))))))))))))))))))))))))))))))))))))))))))
(minimize mem_c0080010_84_32)
(maximize mem_c0000f45_79_992)
(maximize mem_c0080010_84_32)
(minimize mem_c0080020_87_32)
(minimize mem_c0080024_86_32)
(minimize mem_c0000f45_79_992)
(minimize mem_f000000000000020_296_128)
(maximize mem_c0080008_85_32)
(minimize syscall_stub_newfstatat_83_64)
(minimize mem_f000000000000010_251_128)
(maximize mem_c0080020_87_32)
(minimize mem_c0001010_98_32)
(minimize mem_c0080014_89_32)
(maximize mem_c0080018_88_32)
(minimize mem_c0080008_85_32)
(maximize syscall_stub_newfstatat_83_64)
(maximize mem_c0080024_86_32)
(maximize mem_f000000000000030_348_128)
(minimize mem_c0080018_88_32)
(check-sat)
(get-objectives)
